Cash_flow_problem/cash_flow_new.sol
# Solution for model basic_model
# Objective value = 218500
C0(5) 60000
C1(4) 30000
C2(4) 0
C3(3) 40000
C4(3) 75000
C5(3) 0
C6(3) 0
C7(2) 0
